
******************************************************************************
This program contains Ipopt, a library for large-scale nonlinear optimization.
 Ipopt is released as open source code under the Eclipse Public License (EPL).
         For more information visit http://projects.coin-or.org/Ipopt
******************************************************************************

This is Ipopt version 3.12.6, running with linear solver ma57.

Number of nonzeros in equality constraint Jacobian...:    24220
Number of nonzeros in inequality constraint Jacobian.:        0
Number of nonzeros in Lagrangian Hessian.............:     4900

Total number of variables............................:     4900
                     variables with only lower bounds:        0
                variables with lower and upper bounds:        0
                     variables with only upper bounds:        0
Total number of equality constraints.................:     4900
Total number of inequality constraints...............:        0
        inequality constraints with only lower bounds:        0
   inequality constraints with lower and upper bounds:        0
        inequality constraints with only upper bounds:        0

iter    objective    inf_pr   inf_du lg(mu)  ||d||  lg(rg) alpha_du alpha_pr  ls
   0  0.0000000e+00 8.24e+03 0.00e+00  -1.0 0.00e+00    -  0.00e+00 0.00e+00   0
Reallocating memory for MA57: lfact (1280186)
Reallocating memory for MA57: lfact (1398705)
Reallocating memory for MA57: lfact (1475982)
   1  0.0000000e+00 7.73e+03 5.84e-16  -1.0 9.91e+00    -  1.00e+00 6.25e-02h  5
   2  0.0000000e+00 4.28e+03 1.57e-15  -1.0 1.38e+00    -  1.00e+00 5.00e-01h  2
   3  0.0000000e+00 9.97e+02 9.63e-17  -1.0 3.54e-01    -  1.00e+00 1.00e+00h  1
   4  0.0000000e+00 2.31e+02 7.54e-19  -1.0 1.53e-01    -  1.00e+00 1.00e+00h  1
   5  0.0000000e+00 3.85e+01 2.08e-21  -1.7 5.34e-02    -  1.00e+00 1.00e+00h  1
   6  0.0000000e+00 1.51e+00 1.05e-22  -2.5 9.30e-03    -  1.00e+00 1.00e+00h  1
   7  0.0000000e+00 1.85e-03 2.32e-25  -3.8 3.07e-04    -  1.00e+00 1.00e+00h  1
   8  0.0000000e+00 2.29e-09 5.63e-31  -8.6 3.37e-07    -  1.00e+00 1.00e+00h  1

Number of Iterations....: 8

                                   (scaled)                 (unscaled)
Objective...............:   0.0000000000000000e+00    0.0000000000000000e+00
Dual infeasibility......:   0.0000000000000000e+00    0.0000000000000000e+00
Constraint violation....:   5.7583746233179291e-12    2.2899904195128329e-09
Complementarity.........:   0.0000000000000000e+00    0.0000000000000000e+00
Overall NLP error.......:   5.7583746233179291e-12    2.2899904195128329e-09


Number of objective function evaluations             = 15
Number of objective gradient evaluations             = 9
Number of equality constraint evaluations            = 16
Number of inequality constraint evaluations          = 0
Number of equality constraint Jacobian evaluations   = 9
Number of inequality constraint Jacobian evaluations = 0
Number of Lagrangian Hessian evaluations             = 8
Total CPU secs in IPOPT (w/o function evaluations)   =      1.163
Total CPU secs in NLP function evaluations           =      0.013

EXIT: Optimal Solution Found.
Note: The following floating-point exceptions are signalling: IEEE_UNDERFLOW_FLAG IEEE_DENORMAL

************************ CUTEst statistics ************************


 Package used            :  IPOPT
 Problem                 :  POROUS2   
 # variables             =            5184
 # constraints           =            4900
 # objective functions   =        0.2500000E+02
 # objective gradients   =        0.1000000E+02
 # objective Hessians    =        0.9000000E+01
 # Hessian-vector prdct  =        0.0000000E+00
 # constraints functions =        0.2700000E+02
 # constraints gradients =        0.1100000E+02
 # constraints Hessians  =        0.9000000E+01
 Exit code               =               0
 Final f                 =   0.0000000E+00
 Set up time             =            0.14 seconds
 Solve time              =            3.17 seconds


******************************************************************

System Time =       0.7950000167 s.
